Minimize
  obj: -16.4924225024706425 * x1 * x1 + 16.4924225024706425 x1 * x2 + 16.4924225024706425 x1 * x3 + 4.1231056256176605 x1 * x4 - 16.4924225024706425 x2 * x2 + 4.1231056256176605 x2 * x3 + 16.4924225024706425 x2 * x4 - 16.4924225024706425 x3 * x3 + 16.4924225024706425 x3 * x4 - 16.4924225024706425 x4 * x4

Subject To

Binary
x1 x2 x3 x4

End